Instance Name : r202
Authors       : Shobb<shobb@narod.ru>
Date          : 2018-jul-03
Reference     : http://shobb.narod.ru/vrppd.html
Solution
Route 1 : 096 059 092 037 098 085 091 014 042 002 021 072 039 023 015 038 044 016 061 099 018 008 084 086 005 006 094 095 097 043 100 093 017 060 089
Route 2 : 083 045 048 047 036 063 064 011 019 062 088 030 071 078 079 081 009 051 090 049 046 082 007 010 020 032 066 035 068 012 026 013 058
Route 3 : 050 033 065 034 029 003 028 027 069 076 067 073 040 053 087 057 041 022 075 056 074 054 055 004 025 024 080 077 001 070 031 052
